c 23_4_checker.cnf
c
c field = 23
c formula set type = 4_checker
c
p cnf 5 38
36 
38 
40 
42 
-34 
37 
39 
41 
43 
-35 
36 
38 
40 
42 
-46 
37 
39 
41 
43 
-47 
38 
40 
42 
46 
-36 
39 
41 
43 
47 
-37 
38 
40 
42 
46 
-48 
39 
41 
43 
47 
-49 
40 
42 
46 
48 
-38 
41 
43 
47 
49 
-39 
40 
42 
46 
48 
-50 
41 
43 
47 
49 
-51 
42 
46 
48 
50 
-40 
43 
47 
49 
51 
-41 
42 
46 
48 
50 
-52 
43 
47 
49 
51 
-53 
46 
48 
50 
52 
-42 
47 
49 
51 
53 
-43 
46 
48 
50 
52 
-54 
47 
49 
51 
53 
-55 
14 
74 
104 
134 
-164 
15 
75 
105 
135 
-165 
74 
104 
134 
164 
-14 
75 
105 
135 
165 
-15 
74 
104 
134 
164 
-194 
75 
105 
135 
165 
-195 
12 
76 
108 
140 
-172 
13 
77 
109 
141 
-173 
76 
108 
140 
172 
-12 
77 
109 
141 
173 
-13 
76 
108 
140 
172 
-204 
77 
109 
141 
173 
-205 
16 
72 
100 
128 
-156 
17 
73 
101 
129 
-157 
72 
100 
128 
156 
-16 
73 
101 
129 
157 
-17 
72 
100 
128 
156 
-184 
73 
101 
129 
157 
-185 
